Welcome to the CBC MILP Solver 
Version: 2.10.12 
Build Date: Aug 20 2024 

command line - /opt/homebrew/bin/cbc computational_data/real_data/lp/penguins_trial_009_margin.lp seconds 10.0 solve solu computational_data/real_data/solutions/penguins_trial_009_margin.sol (default strategy 1)
 CoinLpIO::readLp(): Maximization problem reformulated as minimization
Coin0009I Switching back to maximization to get correct duals etc
seconds was changed from 1e+100 to 10
Continuous objective value is 66.8593 - 0.00 seconds
Cgl0003I 0 fixed, 0 tightened bounds, 71 strengthened rows, 4 substitutions
Cgl0003I 0 fixed, 0 tightened bounds, 71 strengthened rows, 0 substitutions
Cgl0003I 0 fixed, 0 tightened bounds, 65 strengthened rows, 0 substitutions
Cgl0003I 0 fixed, 0 tightened bounds, 60 strengthened rows, 0 substitutions
Cgl0003I 0 fixed, 0 tightened bounds, 37 strengthened rows, 0 substitutions
Cgl0003I 0 fixed, 0 tightened bounds, 26 strengthened rows, 0 substitutions
Cgl0003I 0 fixed, 0 tightened bounds, 14 strengthened rows, 0 substitutions
Cgl0003I 0 fixed, 0 tightened bounds, 7 strengthened rows, 0 substitutions
Cgl0003I 0 fixed, 0 tightened bounds, 4 strengthened rows, 0 substitutions
Cgl0004I processed model has 65 rows, 26 columns (26 integer (26 of which binary)) and 592 elements
Cbc0038I Initial state - 4 integers unsatisfied sum - 1.44444
Cbc0038I Pass   1: suminf.    0.44444 (2) obj. 64.563 iterations 10
Cbc0038I Solution found of 63.0074
Cbc0038I Before mini branch and bound, 22 integers at bound fixed and 0 continuous
Cbc0038I Full problem 65 rows 26 columns, reduced to 0 rows 0 columns
Cbc0038I Mini branch and bound did not improve solution (0.01 seconds)
Cbc0038I Round again with cutoff of 63.263
Cbc0038I Pass   2: suminf.    0.44444 (2) obj. 64.563 iterations 0
Cbc0038I Pass   3: suminf.    0.25556 (1) obj. 63.263 iterations 11
Cbc0038I Pass   4: suminf.    0.50000 (1) obj. 63.5074 iterations 1
Cbc0038I Pass   5: suminf.    0.61111 (2) obj. 64.3963 iterations 12
Cbc0038I Pass   6: suminf.    0.61111 (2) obj. 64.3963 iterations 11
Cbc0038I Pass   7: suminf.    0.11111 (1) obj. 63.8963 iterations 1
Cbc0038I Pass   8: suminf.    0.25558 (1) obj. 63.263 iterations 8
Cbc0038I Pass   9: suminf.    0.50000 (1) obj. 63.5074 iterations 1
Cbc0038I Pass  10: suminf.    0.74442 (2) obj. 63.263 iterations 13
Cbc0038I Pass  11: suminf.    0.25558 (1) obj. 63.263 iterations 6
Cbc0038I Pass  12: suminf.    0.50000 (1) obj. 63.5074 iterations 1
Cbc0038I Pass  13: suminf.    0.50000 (1) obj. 63.5074 iterations 7
Cbc0038I Pass  14: suminf.    0.61111 (2) obj. 64.3963 iterations 14
Cbc0038I Pass  15: suminf.    0.11111 (1) obj. 63.8963 iterations 9
Cbc0038I Pass  16: suminf.    0.25558 (1) obj. 63.263 iterations 3
Cbc0038I Pass  17: suminf.    0.50000 (1) obj. 63.5074 iterations 1
Cbc0038I Pass  18: suminf.    0.25558 (1) obj. 63.263 iterations 8
Cbc0038I Pass  19: suminf.    0.11111 (1) obj. 63.8963 iterations 8
Cbc0038I Pass  20: suminf.    0.50000 (1) obj. 63.5074 iterations 10
Cbc0038I Pass  21: suminf.    0.25558 (1) obj. 63.263 iterations 2
Cbc0038I Pass  22: suminf.    0.50000 (1) obj. 63.5074 iterations 1
Cbc0038I Pass  23: suminf.    0.50000 (1) obj. 63.5074 iterations 1
Cbc0038I Pass  24: suminf.    1.25556 (3) obj. 63.263 iterations 5
Cbc0038I Pass  25: suminf.    0.74444 (2) obj. 63.263 iterations 4
Cbc0038I Pass  26: suminf.    0.25556 (1) obj. 63.263 iterations 1
Cbc0038I Pass  27: suminf.    0.50000 (1) obj. 63.5074 iterations 1
Cbc0038I Pass  28: suminf.    1.25558 (3) obj. 63.263 iterations 7
Cbc0038I Pass  29: suminf.    0.74442 (2) obj. 63.263 iterations 6
Cbc0038I Pass  30: suminf.    0.25558 (1) obj. 63.263 iterations 1
Cbc0038I Pass  31: suminf.    0.50000 (1) obj. 63.5074 iterations 1
Cbc0038I No solution found this major pass
Cbc0038I Before mini branch and bound, 16 integers at bound fixed and 0 continuous
Cbc0038I Full problem 65 rows 26 columns, reduced to 12 rows 8 columns
Cbc0038I Mini branch and bound did not improve solution (0.01 seconds)
Cbc0038I After 0.01 seconds - Feasibility pump exiting with objective of 63.0074 - took 0.00 seconds
Cbc0012I Integer solution of 63.007402 found by feasibility pump after 0 iterations and 0 nodes (0.01 seconds)
Cbc0031I 6 added rows had average density of 19.5
Cbc0013I At root node, 15 cuts changed objective from 65.562958 to 63.007402 in 1 passes
Cbc0014I Cut generator 0 (Probing) - 0 row cuts average 0.0 elements, 0 column cuts (0 active)  in 0.000 seconds - new frequency is -100
Cbc0014I Cut generator 1 (Gomory) - 4 row cuts average 21.0 elements, 0 column cuts (0 active)  in 0.000 seconds - new frequency is 1
Cbc0014I Cut generator 2 (Knapsack) - 5 row cuts average 16.6 elements, 0 column cuts (0 active)  in 0.000 seconds - new frequency is 1
Cbc0014I Cut generator 3 (Clique) - 0 row cuts average 0.0 elements, 0 column cuts (0 active)  in 0.000 seconds - new frequency is -100
Cbc0014I Cut generator 4 (MixedIntegerRounding2) - 0 row cuts average 0.0 elements, 0 column cuts (0 active)  in 0.000 seconds - new frequency is -100
Cbc0014I Cut generator 5 (FlowCover) - 0 row cuts average 0.0 elements, 0 column cuts (0 active)  in 0.000 seconds - new frequency is -100
Cbc0014I Cut generator 6 (TwoMirCuts) - 4 row cuts average 21.0 elements, 0 column cuts (0 active)  in 0.000 seconds - new frequency is -100
Cbc0014I Cut generator 7 (ZeroHalf) - 2 row cuts average 16.0 elements, 0 column cuts (0 active)  in 0.000 seconds - new frequency is 1
Cbc0001I Search completed - best objective 63.007402, took 0 iterations and 0 nodes (0.01 seconds)
Cbc0035I Maximum depth 0, 0 variables fixed on reduced cost
Cuts at root node changed objective from 65.563 to 63.0074
Probing was tried 1 times and created 0 cuts of which 0 were active after adding rounds of cuts (0.000 seconds)
Gomory was tried 1 times and created 4 cuts of which 0 were active after adding rounds of cuts (0.000 seconds)
Knapsack was tried 1 times and created 5 cuts of which 0 were active after adding rounds of cuts (0.000 seconds)
Clique was tried 1 times and created 0 cuts of which 0 were active after adding rounds of cuts (0.000 seconds)
MixedIntegerRounding2 was tried 1 times and created 0 cuts of which 0 were active after adding rounds of cuts (0.000 seconds)
FlowCover was tried 1 times and created 0 cuts of which 0 were active after adding rounds of cuts (0.000 seconds)
TwoMirCuts was tried 1 times and created 4 cuts of which 0 were active after adding rounds of cuts (0.000 seconds)
ZeroHalf was tried 1 times and created 2 cuts of which 0 were active after adding rounds of cuts (0.000 seconds)

Result - Optimal solution found

Objective value:                63.00740200
Enumerated nodes:               0
Total iterations:               0
Time (CPU seconds):             0.01
Time (Wallclock seconds):       0.01

Total time (CPU seconds):       0.01   (Wallclock seconds):       0.01

